Route #1: 6 49 23 56 41 43 42 64 22 62 28 74
Route #2: 24 18 50 25 55 31 10 58 72 39 9 12
Route #3: 17 40 32 44 3 16 63 1 73 33 51
Route #4: 47 21 61 69 36 71 60 70 20 37 15 57 13 54 19 35
Route #5: 7 53 11 38 65 66 59 14 8
Route #6: 46 52 27 45 29 5 48 30 2 68 75
Route #7: 4 34 67 26
Cost 729